
&inputph
  recover=.false.,
  tr2_ph=1.0d-15,
  prefix='ZnO',
  amass(1)=65.38,
  amass(2)=15.9994,
  outdir='./outdir/',
  fildyn='ZnO.dyn',
  fildvscf='dvscf',
  ldisp=.true.,
  epsil=.true.,
  alpha_mix(1) = 0.1,
  nq1=4, nq2=4, nq3=2
/
