&control
calculation = 'bands'
prefix      = 'ZnO'
outdir      = './outdir',
pseudo_dir = '../../../pseudo_NC_PBE',
verbosity   = 'high'
/

&system
  ibrav   = 4,
  a       = 3.24,       ! Å
  c       = 5.22,       ! Å
  nat     = 4,
  ntyp    = 2,
  ecutwfc = 50.0,
  ecutrho = 200.0,
  nbnd    = 35,
/

&electrons
! diagonalization = 'cg'
mixing_beta = 0.5
conv_thr = 1.0e-8
/

ATOMIC_SPECIES
Zn  65.38    Zn.upf
O   15.9994  O.upf

ATOMIC_POSITIONS (angstrom)  !由cartesian.vasp檔 copy 進來
 Zn  1.618675487   0.934542709   2.614120472
 Zn -0.000000016   1.869085446   0.003089894
 O   1.618675487   0.934542709   4.593942764
 O  -0.000000016   1.869085446   1.982912185

K_POINTS {crystal_b}
13
0.00000000 0.00000000 0.00000000 40  ! Γ
0.50000000 0.00000000 0.00000000 40  ! M
0.33333333 0.33333333 0.00000000 40  ! K
0.00000000 0.00000000 0.00000000 40  ! Γ
0.00000000 0.00000000 0.50000000 40  ! A
0.50000000 0.00000000 0.50000000 40  ! L
0.33333333 0.33333333 0.50000000 40  ! H
0.00000000 0.00000000 0.50000000 40  ! A
0.50000000 0.00000000 0.50000000 40  ! L
0.50000000 0.50000000 0.50000000 40  ! M
0.33333333 0.33333333 0.00000000 40  ! K
0.33333333 0.33333333 0.50000000 40  ! H
0.00000000 0.00000000 0.00000000 40  ! Γ



!K_POINTS (crystal_b)
!8
!0.00000000 0.00000000 0.00000000 40 ! Γ
!0.50000000 0.00000000 0.00000000 40 ! M
!0.33333333 0.33333333 0.00000000 40 ! K
!0.00000000 0.00000000 0.00000000 40 ! Γ
!0.00000000 0.00000000 0.50000000 40 ! A
!0.50000000 0.00000000 0.50000000 40 ! L
!0.33333333 0.33333333 0.50000000 40 ! H
!0.00000000 0.00000000 0.50000000 40 ! A

!K_POINTS (crystal_b)
!8
!0.00000000 0.00000000 0.00000000 40  ! Γ
!0.00000000 0.00000000 0.50000000 40  ! A
!0.33333333 0.33333333 0.50000000 40  ! H
!0.33333333 0.33333333 0.00000000 40  ! K
!0.00000000 0.00000000 0.00000000 40  ! Γ
!0.50000000 0.00000000 0.00000000 40  ! M
!0.50000000 0.00000000 0.50000000 40  ! L
!0.33333333 0.33333333 0.50000000 40  ! H

