&BANDS
outdir='./outdir'
prefix='ZnO'
filband='ZnO.dat'
/
